src/LKH/IO/o-6_t.tsp
NAME: o-6_t
TYPE: TSP
DIMENSION: 6
EDGE_WEIGHT_TYPE: EXPLICIT
EDGE_WEIGHT_FORMAT: FULL_MATRIX
EDGE_WEIGHT_SECTION
0 -2 -10 -10 -14 -16
-2 0 -6 -8 -2 -10
-10 -6 0 -14 -16 -2
-10 -8 -14 0 -12 -8
-14 -2 -16 -12 0 -20
-16 -10 -2 -8 -20 0
EOF