src/LKH/IO/o-6_t.tour
NAME : o-6_t.-78.tour
COMMENT : Length = -78
COMMENT : Found by LKH [Keld Helsgaun] Sun Apr 13 17:05:00 2025
TYPE : TOUR
DIMENSION : 6
TOUR_SECTION
1
5
3
4
2
6
-1
EOF
